Gurobi Optimizer version 9.1.2 build v9.1.2rc0 (linux64)
Thread count: 36 physical cores, 72 logical processors, using up to 32 threads
Optimize a model with 12 rows, 57 columns and 590 nonzeros
Model fingerprint: 0xf32eec78
Model has 47 quadratic constraints
Coefficient statistics:
  Matrix range     [2e-05, 3e+00]
  QMatrix range    [1e+00, 1e+00]
  QLMatrix range   [1e+00, 1e+00]
  Objective range  [8e-03, 7e-01]
  Bounds range     [1e+00, 1e+00]
  RHS range        [1e+00, 1e+00]
Presolve removed 9 rows and 0 columns

Continuous model is non-convex -- solving as a MIP.

Presolve removed 9 rows and 0 columns
Presolve time: 0.00s
Presolved: 189 rows, 57 columns, 443 nonzeros
Presolved model has 47 bilinear constraint(s)
Variable types: 57 continuous, 0 integer (0 binary)

Root relaxation: objective -1.743721e+00, 44 iterations, 0.00 seconds

    Nodes    |    Current Node    |     Objective Bounds      |     Work
 Expl Unexpl |  Obj  Depth IntInf | Incumbent    BestBd   Gap | It/Node Time

     0     0   -1.74372    0   38          -   -1.74372      -     -    0s
H    0     0                       0.6147548   -1.74372   384%     -    0s
     0     0   -1.64739    0    1    0.61475   -1.64739   368%     -    0s
H    0     0                      -1.6450460   -1.64739  0.14%     -    0s
     0     0     cutoff    0        -1.64505   -1.64505  0.00%     -    0s

Cutting planes:
  RLT: 25
  BQP: 3

Explored 1 nodes (76 simplex iterations) in 0.01 seconds
Thread count was 32 (of 72 available processors)

Solution count 2: -1.64505 0.614755 
No other solutions better than -1.64505

Optimal solution found (tolerance 1.00e-04)
Best objective -1.645045978473e+00, best bound -1.645045978473e+00, gap 0.0000%

User-callback calls 78, time in user-callback 0.00 sec
Gurobi Optimizer version 9.1.2 build v9.1.2rc0 (linux64)
Thread count: 36 physical cores, 72 logical processors, using up to 32 threads
Optimize a model with 24 rows, 120 columns and 2480 nonzeros
Model fingerprint: 0x319c87e8
Model has 100 quadratic constraints
Coefficient statistics:
  Matrix range     [8e-06, 4e+00]
  QMatrix range    [1e+00, 1e+00]
  QLMatrix range   [1e+00, 1e+00]
  Objective range  [7e-03, 1e+00]
  Bounds range     [1e+00, 1e+00]
  RHS range        [1e+00, 1e+00]
Presolve removed 16 rows and 0 columns

Continuous model is non-convex -- solving as a MIP.

Presolve removed 16 rows and 0 columns
Presolve time: 0.00s
Presolved: 408 rows, 120 columns, 1351 nonzeros
Presolved model has 100 bilinear constraint(s)
Variable types: 120 continuous, 0 integer (0 binary)

Root relaxation: objective -9.157105e+00, 141 iterations, 0.00 seconds

    Nodes    |    Current Node    |     Objective Bounds      |     Work
 Expl Unexpl |  Obj  Depth IntInf | Incumbent    BestBd   Gap | It/Node Time

     0     0   -9.15710    0  100          -   -9.15710      -     -    0s
H    0     0                       0.9838903   -9.15710  1031%     -    0s
     0     0   -6.62930    0  100    0.98389   -6.62930   774%     -    0s
H    0     0                       0.1313947   -6.62930  5145%     -    0s
     0     0   -6.62305    0  100    0.13139   -6.62305  5141%     -    0s
     0     0   -5.83766    0   90    0.13139   -5.83766  4543%     -    0s
H    0     0                      -0.4627628   -5.83766  1161%     -    0s
     0     0   -5.73257    0   90   -0.46276   -5.73257  1139%     -    0s
     0     0   -5.51712    0   90   -0.46276   -5.51712  1092%     -    0s
     0     0   -5.46640    0  100   -0.46276   -5.46640  1081%     -    0s
     0     0   -5.36651    0  100   -0.46276   -5.36651  1060%     -    0s
     0     0   -5.35895    0  100   -0.46276   -5.35895  1058%     -    0s
     0     0   -5.32218    0  100   -0.46276   -5.32218  1050%     -    0s
     0     0   -5.31485    0  100   -0.46276   -5.31485  1049%     -    0s
     0     0   -5.30766    0  100   -0.46276   -5.30766  1047%     -    0s
     0     0   -5.30194    0   91   -0.46276   -5.30194  1046%     -    0s
     0     0   -5.30165    0  100   -0.46276   -5.30165  1046%     -    0s
     0     0   -5.30164    0  100   -0.46276   -5.30164  1046%     -    0s
H    0     0                      -1.3365357   -5.30164   297%     -    0s
H    0     0                      -2.3061731   -5.30164   130%     -    0s
H    0     0                      -2.3428011   -5.30164   126%     -    0s
H    0     0                      -3.0792888   -5.30164  72.2%     -    0s
H    0     0                      -3.0841359   -5.30164  71.9%     -    0s
     0     2   -5.30164    0  100   -3.08414   -5.30164  71.9%     -    0s
*  498   488              20      -4.3717184   -4.74596  8.56%  37.9    0s
*  786   259              19      -4.3764558   -4.48595  2.50%  30.0    0s
*  897   178              15      -4.4501185   -4.48595  0.81%  27.5    0s
*  898   178              15      -4.4501196   -4.48595  0.81%  27.4    0s
* 1228    62              21      -4.4501554   -4.48595  0.80%  20.8    0s
* 1229    62              21      -4.4501948   -4.48595  0.80%  20.8    0s
* 1241    62              20      -4.4503058   -4.48595  0.80%  20.7    0s
* 1246    62              23      -4.4503239   -4.48595  0.80%  20.6    0s
* 1264    62              22      -4.4503366   -4.48595  0.80%  20.4    0s
* 1311    31              25      -4.4503403   -4.46526  0.34%  19.8    0s
* 1346    31              23      -4.4503542   -4.46526  0.33%  19.6    0s
* 1350    31              25      -4.4503546   -4.46526  0.33%  19.5    0s
* 1421    43              24      -4.4503552   -4.46526  0.33%  18.7    0s
* 1676    73              30      -4.4503553   -4.45730  0.16%  16.4    0s
* 1709    76              28      -4.4503557   -4.45730  0.16%  16.2    0s
* 2081    69              27      -4.4503558   -4.45072  0.01%  13.9    0s

Cutting planes:
  RLT: 85
  BQP: 11
  PSD: 18

Explored 2250 nodes (29758 simplex iterations) in 0.63 seconds
Thread count was 32 (of 72 available processors)

Solution count 10: -4.45036 -4.45036 -4.45036 ... -4.45031

Optimal solution found (tolerance 1.00e-04)
Best objective -4.450355779559e+00, best bound -4.450722762209e+00, gap 0.0082%

User-callback calls 4829, time in user-callback 0.00 sec



objective value: -4.450355779558524
objective bound: -4.450722762209227
x_opt: [0.0, 1.0, 1.0, 1.0, 1.0, 0.0, 0.0, 0.0, 0.2720580598957497, 1.0, 0.0, 0.2545530407724303, 1.0, 0.9430700019908339, 1.0, 0.0, 0.0, 0.0, 0.017367440691418292, 0.5273345459513628]
GUROBI solution time: 0.6335721015930176




